468,298
695,318
596,433
600,566
1045,670
1051,526
1071,406
787,352
698,382
690,378
751,309
575,352
504,378
453,332
196,563
972,195
829,429
745,605
801,776
681,736
737,51
742,21
801,36
738,424
699,524
1055,216
1117,89
518,86
464,-21
681,16
